p tw 19 41
0 1
0 2
1 2
1 3
1 4
2 7
2 8
2 10
2 11
2 13
2 14
2 16
2 17
3 4
3 5
3 6
4 8
4 9
4 11
4 12
4 14
4 15
4 17
4 18
5 6
5 9
5 12
5 15
5 18
6 9
6 12
6 15
6 18
7 8
8 9
10 11
11 12
13 14
14 15
16 17
17 18
